n = 38;
lu = [|-988, 1175
      |-1342, -318
      |-530, -441
      |-1025, -873
      |789, 1327
      |-1088, 974
      |-1314, 284
      |-1322, -1061
      |-549, -492
      |625, 1021
      |-1336, 854
      |-630, 1217
      |788, 1428
      |-542, 274
      |395, 969
      |-1418, -305
      |-791, 1415
      |-51, 287
      |-808, -306
      |-563, -66
      |-1065, -1026
      |-1048, 112
      |-36, 26
      |-361, 1028
      |-1267, 437
      |-933, 752
      |-1122, 106
      |-244, 817
      |1089, 1130
      |37, 920
      |-657, 1441
      |-1257, -1160
      |-511, 1264
      |-1118, -259
      |-1031, -491
      |-306, 112
      |413, 1159
      |-778, 50|];
